ATOMIC_SPECIES
C  12.011  C_ONCV_PBE-1.0.upf
N  14.007  N_ONCV_PBE-1.0.upf
Fe  55.845  Fe_ONCV_PBE-1.0.upf
O  15.999  O_ONCV_PBE-1.0.upf

NUMERICAL_ORBITAL
C_gga_8au_60Ry_2s2p1d.orb
N_gga_8au_60Ry_2s2p1d.orb
Fe_gga_9au_60Ry_4s2p2d1f.orb
O_gga_7au_60Ry_2s2p1d.orb

LATTICE_CONSTANT
1.889727000000

LATTICE_VECTORS
10.707063277579  -5.917654040894  0.000000000000
0.000000000000  12.233565388758  0.000000000000
0.000000000000  0.000000000000  20.000000000000

ATOMIC_POSITIONS
Cartesian

C
0
44
1.444878991218  1.508965854308  6.888057339681  
2.162083557147  0.292973820447  6.888015071241  
1.438252796919  3.968574901737  6.939133061773  
2.136031022955  2.741250442249  6.914317197494  
1.476990849366  6.398797811604  6.968832104389  
2.186866338155  5.170236604355  6.964841459289  
1.504970256850  8.832860741318  6.943160894066  
2.219983392797  7.608875155488  6.968340134684  
1.479787732556  11.292354945668  6.892444315026  
2.201678521717  10.068609961634  6.922896323025  
3.574912447077  0.301764976155  6.914360573511  
4.311548097246  -0.902593845920  6.939002262614  
3.538845866596  2.759747769192  6.944908466439  
4.269777617014  1.520615009471  6.945132714859  
3.630964552755  5.128150490110  6.991221909142  
3.659616776162  7.596982674965  6.981442466290  
4.387034787651  6.363889099808  7.002162074659  
3.620221933150  10.080600603701  6.942124606143  
4.345609020218  8.862789046410  6.968067511203  
5.725444332950  -0.828703363739  6.965101503830  
6.457320902798  -2.044177535144  6.968846006296  
6.387166699219  0.455573350850  6.991961512730  
5.834306054368  6.428064998631  6.993435778524  
5.764099155522  8.927768780233  6.968888776214  
6.496051963826  7.712346033037  6.966598939595  
7.875851131804  -1.979209298874  6.968802479868  
8.601319687639  -3.197021122802  6.943359969802  
7.834408594644  0.519648965312  7.003343827074  
8.561803659663  -0.713427323711  6.982499370150  
8.590627354769  1.755313938948  6.994484771788  
7.951706378195  5.362956389199  6.949759243284  
8.682605114660  4.123771076504  6.950063798377  
7.909930325683  7.786217451357  6.941195150004  
8.646540452085  6.581764220828  6.918002834367  
10.019894116020  -3.185052580841  6.923187037059  
0.034669920166  1.508816509537  6.892542397540  
10.001520646280  -0.725377659649  6.969010505847  
0.009530584024  3.968347870906  6.942672692983  
10.034745105043  1.713302737774  6.967291835139  
0.037452195641  6.402367834346  6.969547322917  
10.085485161495  4.142345998058  6.918211548009  
0.076204593555  8.832665388975  6.941478651221  
10.059374440195  6.590580008594  6.890754940228  
0.069520877195  11.292219530944  6.890709451121  

N
0
4
4.249695197762  3.912391584496  6.994824220847  
5.622427335958  1.585200770634  6.995454011265  
6.598986933074  5.298409975436  6.998822895010  
7.971906796572  2.971050764715  6.999649249950  

Fe
5
1
6.110258115568  3.441617106557  7.301482668695  

O
0
1
6.106613630795  3.440357416810  8.942730658118  
